\ This file has been generated by DOcplex
\ ENCODING=ISO-8859-1
\Problem name: random_problem.lp

Minimize
 obj: 686 x0 + 343 x1 + 510 x2 + 255 x3 - 616 x4 - 308 x5 - 96 x6 - 48 x7
      + 216 x8 + 108 x9 + 258 x10 + 129 x11 - 298 x12 - 149 x13 - 114 x14
      - 57 x15 + [ 1352 x0^2 + 1352 x0*x1 + 896 x0*x2 + 448 x0*x3 + 320 x0*x4
      + 160 x0*x5 + 736 x0*x6 + 368 x0*x7 + 1424 x0*x8 + 712 x0*x9 + 1744 x0*x10
      + 872 x0*x11 + 784 x0*x12 + 392 x0*x13 + 480 x0*x14 + 240 x0*x15
      + 338 x1^2 + 448 x1*x2 + 224 x1*x3 + 160 x1*x4 + 80 x1*x5 + 368 x1*x6
      + 184 x1*x7 + 712 x1*x8 + 356 x1*x9 + 872 x1*x10 + 436 x1*x11 + 392 x1*x12
      + 196 x1*x13 + 240 x1*x14 + 120 x1*x15 + 1064 x2^2 + 1064 x2*x3
      + 800 x2*x4 + 400 x2*x5 + 896 x2*x6 + 448 x2*x7 + 512 x2*x8 + 256 x2*x9
      + 496 x2*x10 + 248 x2*x11 + 1136 x2*x12 + 568 x2*x13 + 704 x2*x14
      + 352 x2*x15 + 266 x3^2 + 400 x3*x4 + 200 x3*x5 + 448 x3*x6 + 224 x3*x7
      + 256 x3*x8 + 128 x3*x9 + 248 x3*x10 + 124 x3*x11 + 568 x3*x12
      + 284 x3*x13 + 352 x3*x14 + 176 x3*x15 + 992 x4^2 + 992 x4*x5 + 416 x4*x6
      + 208 x4*x7 + 1216 x4*x8 + 608 x4*x9 + 1536 x4*x10 + 768 x4*x11
      + 704 x4*x12 + 352 x4*x13 + 248 x5^2 + 208 x5*x6 + 104 x5*x7 + 608 x5*x8
      + 304 x5*x9 + 768 x5*x10 + 384 x5*x11 + 352 x5*x12 + 176 x5*x13 + 512 x6^2
      + 512 x6*x7 + 832 x6*x8 + 416 x6*x9 + 752 x6*x10 + 376 x6*x11 + 816 x6*x12
      + 408 x6*x13 + 432 x6*x14 + 216 x6*x15 + 128 x7^2 + 416 x7*x8 + 208 x7*x9
      + 376 x7*x10 + 188 x7*x11 + 408 x7*x12 + 204 x7*x13 + 216 x7*x14
      + 108 x7*x15 + 1144 x8^2 + 1144 x8*x9 + 1408 x8*x10 + 704 x8*x11
      + 1024 x8*x12 + 512 x8*x13 + 32 x8*x14 + 16 x8*x15 + 286 x9^2 + 704 x9*x10
      + 352 x9*x11 + 512 x9*x12 + 256 x9*x13 + 16 x9*x14 + 8 x9*x15 + 1944 x10^2
      + 1944 x10*x11 + 656 x10*x12 + 328 x10*x13 + 192 x10*x14 + 96 x10*x15
      + 486 x11^2 + 328 x11*x12 + 164 x11*x13 + 96 x11*x14 + 48 x11*x15
      + 768 x12^2 + 768 x12*x13 + 304 x12*x14 + 152 x12*x15 + 192 x13^2
      + 152 x13*x14 + 76 x13*x15 + 328 x14^2 + 328 x14*x15 + 82 x15^2 ]/2
Subject To
 c0: 2 x0 + x1 + 2 x2 + x3 + 2 x4 + x5 + 2 x6 + x7 + 2 x8 + x9 + 2 x10 + x11
     + 2 x12 + x13 + 2 x14 + x15 = 3

Bounds
 0 <= x0 <= 1
 0 <= x1 <= 1
 0 <= x2 <= 1
 0 <= x3 <= 1
 0 <= x4 <= 1
 0 <= x5 <= 1
 0 <= x6 <= 1
 0 <= x7 <= 1
 0 <= x8 <= 1
 0 <= x9 <= 1
 0 <= x10 <= 1
 0 <= x11 <= 1
 0 <= x12 <= 1
 0 <= x13 <= 1
 0 <= x14 <= 1
 0 <= x15 <= 1

Binaries
 x0 x1 x2 x3 x4 x5 x6 x7 x8 x9 x10 x11 x12 x13 x14 x15
End
